************************************************************************
file with basedata            : mm47_.bas
initial value random generator: 380776638
************************************************************************
projects                      :  1
jobs (incl. supersource/sink ):  12
horizon                       :  83
RESOURCES
  - renewable                 :  2   R
  - nonrenewable              :  2   N
  - doubly constrained        :  0   D
************************************************************************
PROJECT INFORMATION:
pronr.  #jobs rel.date duedate tardcost  MPM-Time
    1     10      0       16        2       16
************************************************************************
PRECEDENCE RELATIONS:
jobnr.    #modes  #successors   successors
   0        1          3           1   2   3
   1        3          2           4   9
   2        3          2           8  10
   3        3          3           6   7   9
   4        3          2           5   8
   5        3          1           7
   6        3          1          10
   7        3          1          10
   8        3          1          11
   9        3          1          11
  10        3          1          11
  11        1          0        
************************************************************************
REQUESTS/DURATIONS:
jobnr. mode duration  R 1  R 2  R 3  R 4  E(W 1)  E(W 2)
------------------------------------------------------------------------
  0      1     0       0    0    0    0     0       0
  1      1     5       6    3    9    6    45      75
  2      1     1       7    8   10    2    15      12
  3      1     1      10    8    4    5    18       9
  4      1     5       3   10    5    7    65      60
  5      1     4       8    7    7    6    60      52
  6      1     2       4   10    9    8    28      34
  7      1     1       1    2    4    7     4      11
  8      1     2       2    8    2    4    20      12
  9      1     4       4    8    4    2    48      24
 10      1     1       6    8    9    8    14      17
 11      1     0       0    0    0    0     0       0
************************************************************************
RESOURCEAVAILABILITIES:
  R 1  R 2
   29   109
************************************************************************
RESOURCE LIMITS:
jobnr.  l(R 1)  u(R 1)  l(R 2)  u(R 2)
------------------------------------------------------------------------
  0        0       0       0       0
  1        5       9       8      15
  2        8      15       6      12
  3        9      18       5       9
  4        7      13       7      12
  5        8      15       7      13
  6        7      14       9      17
  7        2       4       6      11
  8        5      10       3       6
  9        6      12       3       6
 10        7      14       9      17
 11        0       0       0       0
************************************************************************
SCENARIOS:
------------------------------------------------------------------------
RESOURCE k = 1
s = 1: (0, 54, 22, 18, 85, 39, 23, 5, 16, 35, 16, 0)
s = 2: (0, 54, 15, 15, 88, 59, 32, 4, 21, 31, 19, 0)
s = 3: (0, 68, 12, 17, 51, 34, 22, 3, 13, 41, 10, 0)
s = 4: (0, 41, 13, 17, 73, 49, 20, 3, 15, 37, 14, 0)
s = 5: (0, 43, 14, 14, 42, 50, 30, 4, 17, 62, 11, 0)
s = 6: (0, 25, 18, 13, 56, 44, 31, 4, 23, 57, 13, 0)
s = 7: (0, 48, 12, 21, 72, 46, 36, 3, 13, 37, 16, 0)
s = 8: (0, 33, 14, 16, 67, 81, 20, 3, 20, 44, 17, 0)
s = 9: (0, 33, 12, 17, 73, 50, 20, 4, 16, 32, 12, 0)
s = 10: (0, 31, 16, 30, 79, 92, 29, 3, 32, 58, 14, 0)
s = 11: (0, 26, 21, 25, 54, 61, 30, 3, 32, 52, 16, 0)
s = 12: (0, 47, 11, 21, 66, 87, 18, 3, 21, 59, 13, 0)
s = 13: (0, 33, 19, 17, 68, 44, 22, 4, 27, 89, 12, 0)
s = 14: (0, 39, 12, 15, 65, 60, 22, 6, 16, 37, 14, 0)
s = 15: (0, 45, 16, 17, 37, 62, 18, 6, 15, 87, 9, 0)
s = 16: (0, 51, 22, 35, 81, 52, 25, 5, 14, 37, 11, 0)
s = 17: (0, 30, 21, 22, 37, 84, 42, 6, 22, 44, 17, 0)
s = 18: (0, 44, 15, 22, 66, 59, 16, 5, 24, 28, 27, 0)
s = 19: (0, 49, 18, 12, 73, 57, 38, 4, 19, 37, 19, 0)
s = 20: (0, 42, 9, 16, 49, 61, 25, 4, 16, 53, 10, 0)
s = 21: (0, 58, 15, 29, 47, 75, 17, 5, 25, 28, 10, 0)
s = 22: (0, 42, 13, 18, 62, 52, 41, 6, 25, 56, 13, 0)
s = 23: (0, 35, 12, 18, 36, 62, 49, 4, 29, 55, 17, 0)
s = 24: (0, 51, 9, 18, 57, 54, 27, 4, 14, 34, 13, 0)
s = 25: (0, 26, 9, 15, 59, 43, 22, 3, 17, 44, 10, 0)
s = 26: (0, 52, 24, 11, 45, 42, 21, 4, 17, 58, 11, 0)
s = 27: (0, 52, 17, 21, 43, 67, 29, 4, 14, 46, 9, 0)
s = 28: (0, 38, 15, 21, 74, 41, 20, 4, 12, 55, 16, 0)
s = 29: (0, 43, 14, 29, 69, 57, 45, 6, 22, 51, 11, 0)
s = 30: (0, 41, 23, 14, 61, 42, 35, 4, 14, 43, 17, 0)
s = 31: (0, 51, 16, 10, 52, 54, 15, 5, 29, 48, 16, 0)
s = 32: (0, 38, 14, 28, 89, 74, 24, 4, 23, 48, 10, 0)
s = 33: (0, 65, 12, 15, 88, 45, 34, 3, 30, 37, 15, 0)
s = 34: (0, 29, 14, 21, 69, 49, 37, 3, 16, 32, 9, 0)
s = 35: (0, 59, 11, 22, 70, 56, 25, 4, 17, 39, 19, 0)
s = 36: (0, 34, 11, 21, 52, 45, 32, 3, 17, 73, 8, 0)
s = 37: (0, 28, 14, 19, 76, 52, 31, 3, 26, 56, 19, 0)
s = 38: (0, 35, 13, 25, 43, 38, 22, 5, 23, 47, 9, 0)
s = 39: (0, 34, 11, 24, 43, 79, 40, 3, 17, 35, 13, 0)
s = 40: (0, 47, 15, 17, 63, 42, 21, 5, 17, 44, 21, 0)
s = 41: (0, 66, 13, 18, 66, 72, 28, 4, 15, 78, 14, 0)
s = 42: (0, 36, 14, 16, 91, 77, 29, 5, 31, 75, 18, 0)
s = 43: (0, 41, 11, 26, 71, 62, 16, 4, 23, 29, 14, 0)
s = 44: (0, 47, 12, 29, 101, 51, 31, 3, 22, 46, 19, 0)
s = 45: (0, 50, 16, 21, 63, 41, 29, 4, 14, 33, 14, 0)
s = 46: (0, 34, 22, 27, 87, 44, 22, 3, 20, 52, 19, 0)
s = 47: (0, 55, 15, 20, 53, 47, 33, 6, 17, 40, 21, 0)
s = 48: (0, 71, 11, 22, 45, 47, 24, 5, 23, 85, 19, 0)
s = 49: (0, 75, 13, 17, 54, 52, 21, 4, 17, 47, 14, 0)
s = 50: (0, 25, 11, 12, 39, 60, 19, 5, 28, 61, 13, 0)
s = 51: (0, 39, 13, 19, 94, 71, 27, 4, 21, 48, 9, 0)
s = 52: (0, 45, 11, 28, 89, 65, 32, 4, 17, 58, 13, 0)
s = 53: (0, 28, 25, 22, 57, 81, 25, 6, 26, 52, 14, 0)
s = 54: (0, 33, 14, 13, 53, 65, 27, 4, 15, 36, 10, 0)
s = 55: (0, 36, 17, 25, 61, 83, 30, 5, 16, 60, 8, 0)
s = 56: (0, 33, 15, 22, 46, 49, 29, 4, 15, 99, 12, 0)
s = 57: (0, 62, 12, 18, 48, 35, 37, 5, 19, 49, 13, 0)
s = 58: (0, 59, 12, 30, 69, 75, 28, 4, 21, 31, 10, 0)
s = 59: (0, 48, 18, 18, 111, 39, 22, 7, 21, 40, 23, 0)
s = 60: (0, 29, 9, 15, 73, 49, 25, 3, 23, 55, 18, 0)
s = 61: (0, 38, 26, 22, 69, 73, 24, 4, 31, 58, 16, 0)
s = 62: (0, 43, 11, 18, 60, 67, 43, 5, 16, 33, 13, 0)
s = 63: (0, 45, 17, 21, 55, 50, 23, 4, 17, 66, 10, 0)
s = 64: (0, 38, 12, 23, 35, 43, 28, 4, 21, 53, 18, 0)
s = 65: (0, 33, 10, 26, 67, 99, 28, 6, 18, 35, 23, 0)
s = 66: (0, 39, 24, 12, 79, 74, 24, 5, 20, 42, 19, 0)
s = 67: (0, 30, 11, 15, 53, 47, 18, 5, 18, 45, 11, 0)
s = 68: (0, 30, 12, 20, 46, 65, 34, 3, 14, 43, 9, 0)
s = 69: (0, 50, 17, 11, 64, 47, 42, 5, 22, 73, 22, 0)
s = 70: (0, 55, 17, 15, 54, 69, 44, 6, 22, 46, 22, 0)
s = 71: (0, 57, 21, 21, 68, 77, 19, 5, 34, 75, 11, 0)
s = 72: (0, 64, 16, 11, 57, 89, 42, 5, 20, 58, 12, 0)
s = 73: (0, 65, 17, 14, 49, 66, 40, 3, 28, 35, 13, 0)
s = 74: (0, 47, 25, 21, 88, 78, 18, 4, 22, 43, 18, 0)
s = 75: (0, 55, 12, 15, 47, 79, 33, 3, 13, 49, 11, 0)
s = 76: (0, 49, 12, 16, 92, 56, 19, 3, 23, 75, 18, 0)
s = 77: (0, 42, 12, 29, 58, 45, 19, 4, 15, 74, 8, 0)
s = 78: (0, 38, 13, 15, 47, 51, 30, 4, 32, 39, 15, 0)
s = 79: (0, 34, 15, 17, 55, 64, 35, 5, 16, 30, 14, 0)
s = 80: (0, 35, 17, 15, 88, 53, 29, 4, 29, 51, 21, 0)
s = 81: (0, 47, 23, 30, 46, 52, 19, 4, 32, 34, 19, 0)
s = 82: (0, 38, 15, 19, 99, 52, 33, 4, 20, 54, 13, 0)
s = 83: (0, 45, 16, 20, 67, 47, 23, 3, 25, 30, 15, 0)
s = 84: (0, 39, 14, 23, 83, 82, 27, 5, 32, 72, 11, 0)
s = 85: (0, 43, 14, 26, 75, 66, 20, 4, 18, 72, 19, 0)
s = 86: (0, 38, 19, 16, 62, 91, 21, 4, 16, 38, 8, 0)
s = 87: (0, 60, 13, 23, 39, 58, 20, 3, 20, 51, 20, 0)
s = 88: (0, 52, 14, 27, 99, 36, 30, 5, 19, 38, 12, 0)
s = 89: (0, 44, 11, 26, 92, 62, 33, 3, 21, 44, 12, 0)
s = 90: (0, 43, 19, 21, 55, 68, 20, 6, 23, 40, 13, 0)
s = 91: (0, 27, 11, 29, 51, 47, 28, 4, 18, 33, 9, 0)
s = 92: (0, 34, 18, 17, 55, 66, 40, 4, 20, 69, 24, 0)
s = 93: (0, 55, 20, 19, 67, 61, 24, 4, 26, 49, 15, 0)
s = 94: (0, 38, 11, 13, 87, 41, 47, 4, 24, 36, 19, 0)
s = 95: (0, 36, 10, 22, 98, 54, 18, 8, 22, 47, 16, 0)
s = 96: (0, 53, 21, 14, 78, 68, 30, 5, 27, 50, 20, 0)
s = 97: (0, 52, 15, 31, 71, 75, 36, 5, 24, 50, 15, 0)
s = 98: (0, 32, 24, 21, 63, 49, 18, 4, 20, 36, 12, 0)
s = 99: (0, 48, 13, 14, 52, 74, 26, 4, 18, 47, 17, 0)
s = 100: (0, 42, 16, 19, 43, 49, 35, 6, 22, 44, 19, 0)
s = 101: (0, 29, 11, 15, 67, 52, 30, 5, 21, 46, 10, 0)
s = 102: (0, 71, 9, 16, 52, 37, 38, 3, 20, 38, 23, 0)
s = 103: (0, 39, 11, 18, 69, 41, 21, 3, 20, 79, 15, 0)
s = 104: (0, 41, 22, 20, 47, 51, 22, 6, 12, 43, 15, 0)
s = 105: (0, 30, 19, 16, 84, 43, 31, 4, 29, 47, 18, 0)
s = 106: (0, 28, 19, 20, 78, 54, 31, 3, 17, 55, 10, 0)
s = 107: (0, 37, 13, 13, 48, 35, 29, 5, 23, 41, 15, 0)
s = 108: (0, 36, 10, 25, 43, 31, 33, 5, 19, 38, 17, 0)
s = 109: (0, 29, 19, 16, 88, 52, 39, 3, 29, 32, 19, 0)
s = 110: (0, 29, 19, 13, 56, 61, 19, 5, 14, 46, 16, 0)
s = 111: (0, 64, 16, 25, 69, 49, 34, 3, 26, 46, 12, 0)
s = 112: (0, 39, 15, 12, 99, 50, 39, 6, 13, 59, 14, 0)
s = 113: (0, 35, 21, 16, 67, 61, 35, 6, 22, 61, 10, 0)
s = 114: (0, 41, 15, 19, 82, 42, 32, 5, 23, 36, 11, 0)
s = 115: (0, 47, 11, 20, 64, 42, 44, 3, 15, 45, 16, 0)
s = 116: (0, 28, 18, 26, 66, 54, 25, 4, 33, 43, 15, 0)
s = 117: (0, 27, 14, 18, 55, 33, 23, 5, 23, 76, 26, 0)
s = 118: (0, 46, 26, 17, 62, 65, 29, 4, 22, 61, 9, 0)
s = 119: (0, 42, 12, 13, 74, 61, 29, 5, 15, 53, 12, 0)
s = 120: (0, 51, 10, 11, 87, 53, 28, 5, 19, 62, 9, 0)
s = 121: (0, 56, 13, 20, 64, 75, 42, 5, 17, 47, 13, 0)
s = 122: (0, 48, 12, 11, 74, 51, 17, 4, 20, 58, 20, 0)
s = 123: (0, 62, 15, 12, 44, 86, 21, 5, 16, 27, 12, 0)
s = 124: (0, 53, 10, 15, 52, 56, 30, 4, 14, 72, 17, 0)
s = 125: (0, 46, 13, 17, 103, 65, 44, 3, 17, 58, 15, 0)
s = 126: (0, 47, 23, 12, 101, 38, 26, 5, 13, 49, 16, 0)
s = 127: (0, 43, 10, 20, 55, 42, 20, 5, 15, 58, 18, 0)
s = 128: (0, 43, 18, 20, 78, 59, 20, 7, 20, 49, 10, 0)
s = 129: (0, 58, 21, 15, 62, 84, 47, 4, 23, 58, 13, 0)
s = 130: (0, 61, 13, 21, 54, 63, 24, 7, 20, 52, 12, 0)
s = 131: (0, 43, 12, 20, 90, 54, 28, 5, 14, 42, 19, 0)
s = 132: (0, 25, 10, 24, 61, 69, 52, 4, 19, 48, 21, 0)
s = 133: (0, 25, 11, 18, 93, 36, 41, 5, 22, 60, 14, 0)
s = 134: (0, 51, 15, 28, 58, 65, 27, 6, 18, 31, 17, 0)
s = 135: (0, 55, 16, 18, 72, 52, 22, 5, 25, 50, 9, 0)
s = 136: (0, 40, 12, 25, 59, 47, 27, 5, 20, 28, 16, 0)
s = 137: (0, 44, 17, 26, 96, 53, 35, 4, 14, 34, 20, 0)
s = 138: (0, 70, 21, 13, 95, 79, 38, 3, 15, 41, 14, 0)
s = 139: (0, 51, 14, 12, 59, 50, 18, 5, 22, 50, 15, 0)
s = 140: (0, 39, 18, 14, 91, 56, 31, 6, 17, 40, 21, 0)
s = 141: (0, 46, 13, 10, 57, 46, 20, 4, 15, 42, 16, 0)
s = 142: (0, 34, 10, 23, 49, 89, 21, 6, 11, 73, 20, 0)
s = 143: (0, 57, 12, 12, 78, 100, 53, 3, 29, 50, 23, 0)
s = 144: (0, 27, 13, 21, 45, 78, 29, 4, 33, 31, 9, 0)
s = 145: (0, 35, 11, 13, 101, 33, 21, 4, 17, 60, 13, 0)
s = 146: (0, 56, 17, 17, 66, 50, 34, 6, 17, 35, 10, 0)
s = 147: (0, 43, 14, 12, 87, 46, 21, 5, 18, 38, 12, 0)
s = 148: (0, 43, 11, 25, 89, 61, 50, 3, 25, 46, 22, 0)
s = 149: (0, 62, 11, 24, 61, 42, 36, 3, 17, 55, 13, 0)
s = 150: (0, 40, 13, 27, 81, 49, 36, 5, 22, 43, 13, 0)
s = 151: (0, 36, 13, 23, 54, 66, 24, 4, 22, 49, 15, 0)
s = 152: (0, 55, 18, 19, 60, 46, 19, 4, 16, 64, 14, 0)
s = 153: (0, 55, 18, 13, 42, 71, 31, 3, 25, 58, 13, 0)
s = 154: (0, 66, 14, 20, 64, 62, 32, 5, 13, 67, 19, 0)
s = 155: (0, 47, 12, 25, 47, 40, 53, 5, 36, 48, 14, 0)
s = 156: (0, 35, 21, 11, 56, 57, 19, 5, 16, 46, 9, 0)
s = 157: (0, 24, 10, 19, 78, 41, 42, 5, 16, 32, 12, 0)
s = 158: (0, 55, 13, 19, 82, 58, 42, 5, 20, 42, 11, 0)
s = 159: (0, 43, 10, 21, 48, 34, 27, 4, 20, 73, 21, 0)
s = 160: (0, 60, 13, 27, 45, 64, 19, 5, 13, 64, 16, 0)
s = 161: (0, 37, 21, 16, 61, 62, 38, 4, 23, 40, 18, 0)
s = 162: (0, 41, 13, 16, 71, 63, 39, 5, 24, 69, 16, 0)
s = 163: (0, 39, 13, 12, 70, 69, 24, 3, 24, 52, 15, 0)
s = 164: (0, 67, 24, 28, 46, 45, 30, 3, 24, 54, 16, 0)
s = 165: (0, 51, 22, 18, 67, 67, 25, 3, 17, 71, 11, 0)
s = 166: (0, 44, 15, 17, 73, 66, 27, 3, 25, 38, 16, 0)
s = 167: (0, 44, 12, 11, 73, 60, 20, 4, 15, 53, 12, 0)
s = 168: (0, 27, 15, 12, 60, 46, 28, 4, 14, 58, 18, 0)
s = 169: (0, 75, 21, 22, 97, 35, 38, 7, 13, 43, 13, 0)
s = 170: (0, 41, 16, 13, 93, 45, 27, 3, 17, 33, 16, 0)
s = 171: (0, 37, 21, 26, 58, 101, 34, 3, 21, 44, 12, 0)
s = 172: (0, 49, 17, 16, 40, 55, 27, 4, 23, 35, 13, 0)
s = 173: (0, 30, 13, 21, 59, 71, 22, 4, 23, 33, 18, 0)
s = 174: (0, 36, 11, 18, 71, 39, 27, 4, 23, 45, 19, 0)
s = 175: (0, 30, 16, 16, 55, 81, 34, 4, 19, 61, 16, 0)
s = 176: (0, 38, 20, 21, 52, 51, 16, 5, 16, 42, 16, 0)
s = 177: (0, 58, 10, 28, 60, 36, 42, 6, 16, 31, 8, 0)
s = 178: (0, 30, 22, 21, 42, 79, 36, 6, 34, 54, 22, 0)
s = 179: (0, 41, 16, 13, 62, 77, 22, 7, 21, 55, 17, 0)
s = 180: (0, 44, 14, 25, 52, 70, 27, 3, 16, 69, 8, 0)
s = 181: (0, 39, 25, 18, 75, 91, 38, 6, 14, 34, 17, 0)
s = 182: (0, 50, 10, 20, 72, 90, 22, 5, 14, 56, 11, 0)
s = 183: (0, 32, 17, 25, 87, 34, 24, 4, 21, 48, 20, 0)
s = 184: (0, 40, 19, 20, 69, 36, 22, 4, 25, 29, 13, 0)
s = 185: (0, 45, 10, 20, 50, 56, 25, 5, 16, 32, 18, 0)
s = 186: (0, 32, 15, 22, 64, 72, 18, 5, 25, 66, 11, 0)
s = 187: (0, 47, 15, 16, 89, 67, 44, 6, 23, 45, 13, 0)
s = 188: (0, 31, 14, 12, 87, 81, 36, 7, 17, 81, 12, 0)
s = 189: (0, 79, 16, 16, 56, 64, 34, 4, 24, 83, 13, 0)
s = 190: (0, 75, 11, 19, 69, 37, 23, 6, 19, 43, 14, 0)
s = 191: (0, 60, 20, 20, 62, 43, 36, 3, 30, 76, 14, 0)
s = 192: (0, 57, 15, 11, 55, 45, 17, 3, 14, 51, 9, 0)
s = 193: (0, 44, 13, 23, 65, 35, 34, 5, 24, 39, 17, 0)
s = 194: (0, 61, 16, 15, 83, 38, 27, 3, 25, 37, 18, 0)
s = 195: (0, 32, 10, 21, 58, 67, 33, 3, 14, 39, 13, 0)
s = 196: (0, 46, 13, 25, 63, 45, 37, 3, 32, 32, 19, 0)
s = 197: (0, 52, 14, 18, 83, 77, 39, 5, 12, 33, 14, 0)
s = 198: (0, 64, 26, 13, 75, 37, 38, 5, 30, 43, 13, 0)
s = 199: (0, 47, 17, 15, 37, 46, 45, 3, 21, 65, 13, 0)
s = 200: (0, 85, 12, 16, 52, 50, 35, 4, 19, 57, 9, 0)
------------------------------------------------------------------------
RESOURCE k = 2
s = 1: (0, 89, 18, 9, 78, 34, 28, 14, 10, 18, 19, 0)
s = 2: (0, 90, 12, 8, 81, 51, 39, 10, 13, 16, 23, 0)
s = 3: (0, 114, 10, 9, 47, 29, 27, 8, 8, 21, 12, 0)
s = 4: (0, 69, 10, 9, 67, 43, 24, 8, 9, 19, 17, 0)
s = 5: (0, 71, 12, 7, 39, 43, 36, 11, 11, 31, 13, 0)
s = 6: (0, 41, 14, 7, 52, 38, 37, 10, 14, 29, 16, 0)
s = 7: (0, 80, 9, 11, 67, 40, 44, 8, 8, 19, 20, 0)
s = 8: (0, 55, 11, 8, 62, 70, 24, 7, 12, 22, 20, 0)
s = 9: (0, 54, 10, 9, 68, 44, 24, 11, 10, 16, 15, 0)
s = 10: (0, 52, 13, 15, 73, 80, 35, 8, 20, 29, 17, 0)
s = 11: (0, 43, 17, 13, 50, 53, 36, 7, 20, 26, 19, 0)
s = 12: (0, 79, 9, 11, 61, 75, 21, 8, 13, 30, 16, 0)
s = 13: (0, 54, 15, 9, 63, 38, 26, 10, 17, 45, 14, 0)
s = 14: (0, 65, 10, 8, 60, 52, 26, 15, 10, 19, 17, 0)
s = 15: (0, 75, 13, 9, 34, 54, 22, 16, 9, 44, 11, 0)
s = 16: (0, 84, 18, 18, 75, 45, 31, 13, 9, 19, 13, 0)
s = 17: (0, 49, 17, 11, 34, 73, 51, 15, 14, 22, 20, 0)
s = 18: (0, 73, 12, 11, 61, 51, 19, 12, 15, 14, 32, 0)
s = 19: (0, 81, 15, 6, 68, 49, 47, 11, 12, 19, 23, 0)
s = 20: (0, 70, 7, 8, 45, 53, 30, 10, 10, 27, 12, 0)
s = 21: (0, 96, 12, 15, 43, 65, 21, 12, 15, 14, 12, 0)
s = 22: (0, 70, 10, 9, 57, 45, 50, 17, 15, 28, 16, 0)
s = 23: (0, 58, 10, 9, 33, 54, 59, 10, 17, 28, 21, 0)
s = 24: (0, 84, 7, 9, 52, 47, 33, 10, 9, 17, 16, 0)
s = 25: (0, 43, 7, 8, 54, 37, 26, 8, 10, 22, 12, 0)
s = 26: (0, 87, 19, 6, 42, 36, 26, 10, 11, 29, 13, 0)
s = 27: (0, 86, 14, 11, 40, 58, 35, 10, 9, 23, 10, 0)
s = 28: (0, 63, 12, 11, 68, 36, 24, 10, 7, 28, 20, 0)
s = 29: (0, 72, 11, 15, 64, 49, 54, 16, 14, 26, 13, 0)
s = 30: (0, 69, 19, 7, 56, 37, 42, 11, 8, 22, 21, 0)
s = 31: (0, 85, 13, 5, 48, 47, 18, 13, 17, 24, 19, 0)
s = 32: (0, 62, 12, 14, 82, 64, 29, 9, 14, 24, 12, 0)
s = 33: (0, 108, 10, 8, 81, 39, 41, 7, 18, 19, 18, 0)
s = 34: (0, 47, 11, 11, 64, 43, 45, 9, 10, 16, 11, 0)
s = 35: (0, 98, 9, 11, 64, 49, 31, 9, 10, 20, 23, 0)
s = 36: (0, 57, 9, 11, 48, 39, 39, 7, 11, 37, 9, 0)
s = 37: (0, 46, 11, 10, 70, 45, 37, 8, 16, 28, 23, 0)
s = 38: (0, 57, 10, 13, 40, 33, 27, 13, 14, 24, 11, 0)
s = 39: (0, 56, 9, 12, 40, 68, 48, 8, 11, 18, 16, 0)
s = 40: (0, 77, 12, 9, 58, 36, 25, 12, 11, 22, 26, 0)
s = 41: (0, 110, 10, 9, 61, 63, 34, 11, 9, 39, 17, 0)
s = 42: (0, 60, 11, 8, 84, 67, 35, 13, 19, 38, 22, 0)
s = 43: (0, 68, 9, 13, 66, 54, 19, 10, 14, 15, 17, 0)
s = 44: (0, 78, 10, 15, 93, 44, 37, 8, 13, 23, 23, 0)
s = 45: (0, 83, 13, 11, 58, 36, 35, 11, 8, 17, 16, 0)
s = 46: (0, 56, 18, 14, 80, 38, 27, 8, 12, 26, 22, 0)
s = 47: (0, 92, 12, 10, 49, 41, 41, 15, 11, 20, 26, 0)
s = 48: (0, 119, 9, 11, 42, 41, 29, 14, 14, 43, 23, 0)
s = 49: (0, 124, 11, 9, 50, 45, 26, 9, 10, 24, 17, 0)
s = 50: (0, 42, 9, 6, 36, 52, 23, 14, 17, 31, 16, 0)
s = 51: (0, 65, 11, 10, 87, 61, 33, 11, 13, 24, 11, 0)
s = 52: (0, 75, 9, 14, 82, 56, 39, 10, 11, 29, 16, 0)
s = 53: (0, 46, 20, 11, 53, 70, 30, 15, 16, 26, 17, 0)
s = 54: (0, 55, 11, 7, 49, 56, 33, 10, 9, 18, 12, 0)
s = 55: (0, 59, 14, 13, 57, 72, 37, 12, 10, 30, 10, 0)
s = 56: (0, 54, 12, 11, 42, 43, 35, 10, 9, 50, 15, 0)
s = 57: (0, 103, 9, 9, 44, 31, 44, 12, 12, 25, 15, 0)
s = 58: (0, 98, 9, 15, 64, 65, 34, 10, 13, 16, 13, 0)
s = 59: (0, 80, 14, 9, 102, 34, 26, 19, 13, 20, 28, 0)
s = 60: (0, 48, 7, 8, 67, 42, 30, 9, 14, 28, 22, 0)
s = 61: (0, 63, 21, 11, 64, 63, 29, 10, 19, 29, 19, 0)
s = 62: (0, 71, 9, 9, 55, 58, 52, 14, 10, 17, 16, 0)
s = 63: (0, 74, 14, 11, 51, 44, 27, 10, 10, 33, 12, 0)
s = 64: (0, 63, 9, 12, 33, 37, 34, 11, 13, 27, 22, 0)
s = 65: (0, 54, 8, 13, 62, 86, 34, 15, 11, 18, 28, 0)
s = 66: (0, 64, 19, 6, 73, 64, 30, 12, 12, 21, 23, 0)
s = 67: (0, 50, 9, 8, 49, 41, 21, 13, 11, 23, 13, 0)
s = 68: (0, 50, 10, 10, 43, 56, 41, 7, 9, 22, 11, 0)
s = 69: (0, 82, 14, 6, 59, 41, 50, 12, 13, 37, 26, 0)
s = 70: (0, 92, 14, 8, 50, 60, 53, 17, 14, 23, 27, 0)
s = 71: (0, 95, 17, 11, 63, 66, 23, 12, 20, 38, 14, 0)
s = 72: (0, 106, 13, 6, 52, 77, 51, 12, 12, 29, 14, 0)
s = 73: (0, 108, 13, 7, 45, 57, 48, 7, 17, 18, 15, 0)
s = 74: (0, 78, 20, 11, 82, 67, 22, 10, 13, 22, 22, 0)
s = 75: (0, 92, 10, 8, 44, 69, 40, 7, 8, 25, 13, 0)
s = 76: (0, 81, 9, 8, 85, 48, 23, 7, 14, 38, 21, 0)
s = 77: (0, 70, 10, 15, 54, 39, 23, 9, 9, 37, 10, 0)
s = 78: (0, 64, 11, 8, 44, 44, 36, 9, 20, 20, 18, 0)
s = 79: (0, 57, 12, 9, 51, 56, 43, 13, 10, 15, 17, 0)
s = 80: (0, 59, 14, 8, 81, 46, 36, 9, 18, 26, 26, 0)
s = 81: (0, 78, 18, 15, 42, 45, 23, 11, 20, 17, 23, 0)
s = 82: (0, 64, 12, 10, 91, 45, 41, 10, 12, 27, 15, 0)
s = 83: (0, 75, 13, 10, 62, 41, 28, 8, 15, 15, 18, 0)
s = 84: (0, 64, 11, 12, 76, 71, 33, 12, 19, 36, 13, 0)
s = 85: (0, 71, 12, 13, 69, 57, 24, 11, 11, 36, 23, 0)
s = 86: (0, 63, 15, 8, 57, 79, 26, 10, 10, 19, 10, 0)
s = 87: (0, 99, 11, 12, 36, 50, 25, 9, 12, 26, 24, 0)
s = 88: (0, 87, 12, 14, 91, 31, 37, 13, 12, 19, 14, 0)
s = 89: (0, 74, 9, 13, 85, 54, 41, 8, 13, 22, 15, 0)
s = 90: (0, 72, 16, 11, 50, 59, 24, 15, 14, 20, 16, 0)
s = 91: (0, 45, 9, 15, 47, 41, 34, 9, 11, 17, 11, 0)
s = 92: (0, 56, 14, 9, 51, 57, 49, 10, 12, 35, 29, 0)
s = 93: (0, 91, 16, 10, 62, 53, 29, 9, 16, 25, 18, 0)
s = 94: (0, 64, 9, 7, 80, 35, 57, 10, 15, 18, 24, 0)
s = 95: (0, 60, 8, 11, 91, 47, 22, 20, 14, 24, 19, 0)
s = 96: (0, 88, 17, 7, 72, 59, 36, 12, 16, 25, 24, 0)
s = 97: (0, 86, 12, 16, 65, 65, 44, 12, 14, 25, 18, 0)
s = 98: (0, 53, 19, 11, 58, 43, 22, 11, 12, 18, 14, 0)
s = 99: (0, 80, 11, 7, 48, 64, 32, 10, 11, 24, 20, 0)
s = 100: (0, 69, 13, 10, 40, 43, 43, 15, 13, 22, 23, 0)
s = 101: (0, 47, 9, 8, 61, 45, 37, 12, 13, 23, 12, 0)
s = 102: (0, 118, 8, 8, 48, 32, 46, 8, 12, 19, 28, 0)
s = 103: (0, 65, 9, 9, 63, 36, 26, 8, 12, 40, 18, 0)
s = 104: (0, 68, 18, 10, 44, 45, 27, 16, 7, 22, 18, 0)
s = 105: (0, 49, 16, 8, 78, 37, 37, 11, 18, 24, 21, 0)
s = 106: (0, 47, 15, 10, 72, 47, 37, 9, 10, 28, 13, 0)
s = 107: (0, 62, 11, 7, 44, 31, 36, 12, 14, 21, 18, 0)
s = 108: (0, 60, 8, 13, 40, 27, 40, 12, 12, 19, 20, 0)
s = 109: (0, 48, 16, 8, 81, 45, 48, 7, 18, 16, 23, 0)
s = 110: (0, 47, 15, 7, 51, 53, 23, 12, 9, 23, 20, 0)
s = 111: (0, 106, 13, 13, 64, 42, 41, 8, 16, 23, 14, 0)
s = 112: (0, 65, 12, 6, 92, 44, 47, 15, 8, 30, 17, 0)
s = 113: (0, 58, 17, 8, 62, 53, 42, 14, 13, 31, 12, 0)
s = 114: (0, 67, 12, 10, 75, 36, 38, 13, 14, 18, 14, 0)
s = 115: (0, 78, 9, 10, 59, 36, 53, 8, 9, 23, 19, 0)
s = 116: (0, 46, 15, 13, 61, 47, 30, 11, 20, 22, 18, 0)
s = 117: (0, 44, 11, 9, 51, 29, 28, 14, 14, 38, 31, 0)
s = 118: (0, 77, 21, 9, 57, 57, 35, 11, 13, 31, 11, 0)
s = 119: (0, 69, 10, 7, 68, 53, 36, 14, 9, 27, 15, 0)
s = 120: (0, 85, 8, 6, 80, 46, 34, 13, 12, 31, 10, 0)
s = 121: (0, 92, 11, 10, 59, 65, 50, 13, 10, 24, 16, 0)
s = 122: (0, 79, 10, 6, 69, 44, 20, 11, 12, 29, 24, 0)
s = 123: (0, 104, 12, 6, 41, 74, 26, 12, 10, 14, 14, 0)
s = 124: (0, 89, 8, 8, 48, 49, 36, 10, 9, 36, 21, 0)
s = 125: (0, 77, 10, 9, 95, 56, 53, 9, 11, 29, 18, 0)
s = 126: (0, 78, 18, 6, 94, 33, 32, 14, 8, 25, 19, 0)
s = 127: (0, 72, 8, 10, 51, 37, 24, 12, 9, 29, 22, 0)
s = 128: (0, 71, 15, 10, 72, 51, 24, 19, 12, 25, 11, 0)
s = 129: (0, 96, 17, 8, 57, 73, 57, 10, 14, 29, 16, 0)
s = 130: (0, 101, 11, 11, 50, 55, 29, 17, 12, 26, 15, 0)
s = 131: (0, 71, 10, 10, 83, 47, 34, 12, 9, 21, 23, 0)
s = 132: (0, 42, 8, 12, 56, 60, 63, 11, 12, 24, 26, 0)
s = 133: (0, 42, 9, 9, 86, 31, 50, 13, 13, 30, 17, 0)
s = 134: (0, 84, 12, 14, 53, 57, 32, 15, 11, 16, 21, 0)
s = 135: (0, 91, 13, 9, 66, 45, 26, 13, 15, 25, 10, 0)
s = 136: (0, 67, 10, 13, 54, 41, 33, 12, 12, 14, 20, 0)
s = 137: (0, 72, 14, 13, 89, 46, 43, 9, 9, 17, 24, 0)
s = 138: (0, 117, 17, 7, 88, 69, 46, 8, 9, 21, 17, 0)
s = 139: (0, 85, 11, 6, 54, 44, 22, 13, 13, 25, 18, 0)
s = 140: (0, 64, 15, 7, 84, 48, 38, 15, 10, 20, 25, 0)
s = 141: (0, 77, 11, 5, 52, 40, 25, 10, 9, 21, 20, 0)
s = 142: (0, 57, 8, 12, 45, 77, 25, 15, 7, 37, 24, 0)
s = 143: (0, 95, 10, 6, 72, 86, 64, 8, 18, 25, 28, 0)
s = 144: (0, 44, 11, 11, 42, 67, 36, 10, 20, 16, 11, 0)
s = 145: (0, 59, 9, 7, 94, 28, 26, 10, 11, 30, 15, 0)
s = 146: (0, 93, 14, 9, 61, 43, 41, 15, 11, 18, 13, 0)
s = 147: (0, 72, 11, 6, 81, 40, 25, 12, 11, 19, 14, 0)
s = 148: (0, 72, 9, 13, 82, 53, 60, 8, 15, 23, 27, 0)
s = 149: (0, 103, 9, 12, 56, 36, 44, 7, 10, 28, 15, 0)
s = 150: (0, 67, 11, 14, 74, 43, 44, 14, 13, 22, 15, 0)
s = 151: (0, 59, 10, 12, 50, 57, 29, 10, 14, 25, 18, 0)
s = 152: (0, 91, 15, 10, 55, 40, 23, 11, 10, 32, 17, 0)
s = 153: (0, 92, 14, 7, 38, 62, 37, 8, 15, 29, 16, 0)
s = 154: (0, 110, 11, 10, 59, 54, 38, 12, 8, 34, 23, 0)
s = 155: (0, 77, 10, 13, 44, 35, 64, 13, 22, 24, 17, 0)
s = 156: (0, 57, 17, 6, 52, 50, 23, 14, 10, 23, 11, 0)
s = 157: (0, 40, 8, 10, 72, 35, 51, 12, 10, 16, 14, 0)
s = 158: (0, 91, 10, 10, 76, 51, 51, 12, 12, 21, 13, 0)
s = 159: (0, 72, 8, 11, 44, 30, 33, 11, 12, 37, 25, 0)
s = 160: (0, 100, 10, 14, 42, 56, 23, 13, 8, 32, 19, 0)
s = 161: (0, 61, 17, 8, 57, 54, 46, 11, 14, 20, 22, 0)
s = 162: (0, 69, 10, 8, 66, 55, 47, 12, 14, 35, 19, 0)
s = 163: (0, 64, 11, 6, 65, 60, 29, 7, 14, 26, 19, 0)
s = 164: (0, 112, 20, 14, 43, 39, 36, 7, 15, 27, 20, 0)
s = 165: (0, 84, 18, 9, 62, 59, 30, 7, 10, 36, 13, 0)
s = 166: (0, 73, 12, 9, 67, 57, 33, 8, 15, 19, 19, 0)
s = 167: (0, 73, 10, 6, 67, 52, 24, 11, 9, 27, 15, 0)
s = 168: (0, 45, 12, 6, 55, 40, 33, 10, 9, 29, 21, 0)
s = 169: (0, 124, 17, 11, 89, 31, 46, 19, 8, 22, 16, 0)
s = 170: (0, 68, 13, 7, 86, 39, 33, 7, 10, 17, 20, 0)
s = 171: (0, 62, 17, 13, 54, 88, 41, 7, 13, 22, 14, 0)
s = 172: (0, 82, 13, 8, 37, 48, 33, 11, 14, 18, 16, 0)
s = 173: (0, 50, 10, 11, 55, 62, 27, 10, 14, 17, 21, 0)
s = 174: (0, 60, 9, 9, 65, 34, 33, 10, 14, 23, 23, 0)
s = 175: (0, 50, 13, 8, 51, 70, 41, 10, 12, 31, 20, 0)
s = 176: (0, 63, 16, 11, 48, 44, 20, 14, 10, 21, 19, 0)
s = 177: (0, 96, 8, 14, 55, 31, 51, 14, 10, 16, 9, 0)
s = 178: (0, 50, 18, 11, 39, 68, 43, 17, 21, 27, 27, 0)
s = 179: (0, 68, 13, 7, 57, 67, 27, 18, 13, 28, 20, 0)
s = 180: (0, 73, 12, 13, 48, 61, 32, 7, 10, 35, 10, 0)
s = 181: (0, 64, 20, 9, 69, 79, 46, 17, 8, 17, 20, 0)
s = 182: (0, 83, 8, 10, 67, 78, 27, 12, 8, 28, 13, 0)
s = 183: (0, 53, 14, 13, 80, 30, 29, 10, 13, 24, 24, 0)
s = 184: (0, 66, 15, 10, 64, 32, 26, 9, 15, 15, 16, 0)
s = 185: (0, 74, 8, 10, 46, 48, 31, 13, 10, 16, 22, 0)
s = 186: (0, 52, 12, 11, 59, 62, 22, 12, 15, 33, 13, 0)
s = 187: (0, 78, 12, 8, 83, 58, 53, 14, 14, 23, 16, 0)
s = 188: (0, 52, 11, 6, 80, 70, 44, 18, 11, 41, 15, 0)
s = 189: (0, 131, 13, 8, 52, 56, 41, 9, 15, 42, 15, 0)
s = 190: (0, 125, 9, 10, 64, 32, 28, 14, 11, 22, 17, 0)
s = 191: (0, 100, 16, 10, 57, 38, 43, 8, 18, 38, 17, 0)
s = 192: (0, 95, 12, 6, 51, 39, 20, 8, 9, 26, 11, 0)
s = 193: (0, 73, 10, 12, 60, 31, 41, 13, 15, 20, 21, 0)
s = 194: (0, 101, 13, 8, 76, 33, 33, 7, 15, 19, 22, 0)
s = 195: (0, 53, 8, 11, 53, 58, 41, 9, 9, 20, 15, 0)
s = 196: (0, 76, 11, 13, 58, 39, 45, 7, 20, 16, 24, 0)
s = 197: (0, 86, 11, 9, 76, 67, 47, 13, 8, 17, 16, 0)
s = 198: (0, 106, 21, 7, 69, 32, 47, 13, 18, 22, 15, 0)
s = 199: (0, 77, 13, 8, 34, 40, 55, 7, 13, 33, 15, 0)
s = 200: (0, 142, 9, 8, 48, 43, 42, 10, 12, 29, 11, 0)
************************************************************************
ES/LS-VALUES:
jobnr.   ES(i)    LS(i)
------------------------------------------------------------------------
  0        0        0
  1        0       53
  2        0       77
  3        0       72
  4        9       63
  5       17       72
  6        2       77
  7       23       79
  8       17       79
  9        9       74
 10       25       81
 11       26       83
************************************************************************
BIG-M-VALUES:
M1 = 35, M2 = 227
************************************************************************
